0000000000000000
0111000000000000
0011100000000000
0001110000000000
0000011100000000
0000001110000000
0000000111000000
0000011111100000
0000111001110000
0001110001110000
0001100000111000
0001100000011100
0001100000011100
0001100000011100
0000000000000000
0000000000000000
